c Random generated cnf formula, satisfiable: false
p cnf 10 50
8 6 1 0
-2 -9 -1 0
1 -3 2 0
7 -3 5 0
3 1 2 0
4 8 9 0
7 -2 -1 0
2 -6 -5 0
-6 -8 1 0
3 -2 -8 0
6 -3 9 0
-6 4 -3 0
-1 4 -2 0
-9 8 1 0
7 -5 -9 0
7 -10 -3 0
-5 -8 -1 0
-7 -8 -2 0
3 2 -10 0
1 5 6 0
3 -4 -1 0
7 6 5 0
-3 -1 -7 0
-5 6 -9 0
-1 -3 4 0
-3 -9 8 0
3 -9 5 0
-5 1 -2 0
-4 5 -8 0
4 10 1 0
2 -3 9 0
9 8 -2 0
1 -8 5 0
3 -4 -10 0
5 2 -7 0
-6 5 10 0
7 8 6 0
-2 -5 -7 0
-2 -7 -5 0
-7 2 1 0
6 9 1 0
6 -5 -7 0
-3 10 -7 0
-5 7 6 0
-7 -3 -5 0
5 -1 -10 0
-6 1 -9 0
9 7 -5 0
-8 10 5 0
1 -5 -6 0
